# Solution for model GasLib-40
# Objective value = 5.7330597680551705e+01
loadshed[innode_1] 0
loadshed[innode_2] 0
loadshed[innode_3] 0
loadshed[innode_4] 0
loadshed[innode_5] 0
loadshed[innode_6] 0
loadshed[innode_7] 0
loadshed[innode_8] 0
loadshed[source_1] -1.1220884065346737e-01
loadshed[source_2] 2.3286297675310352e-01
loadshed[source_3] 2.4199054064079772e-01
loadshed[sink_1] 5.7558879634703053e-01
loadshed[sink_2] 0
loadshed[sink_3] 0
loadshed[sink_4] 0
loadshed[sink_5] 0
loadshed[sink_6] 0
loadshed[sink_7] 0
loadshed[sink_8] 0
loadshed[sink_9] 0
loadshed[sink_10] 0
loadshed[sink_11] 0
loadshed[sink_12] 1
loadshed[sink_13] 0
loadshed[sink_14] 0
loadshed[sink_15] 0
loadshed[sink_16] 0
loadshed[sink_17] 0
loadshed[sink_18] 0
loadshed[sink_19] 0
loadshed[sink_20] 0
loadshed[sink_21] 1
loadshed[sink_22] 0
loadshed[sink_23] 0
loadshed[sink_24] 9.2997641214530280e-01
loadshed[sink_25] 0
loadshed[sink_26] 0
loadshed[sink_27] 0
loadshed[sink_28] 0
loadshed[sink_29] 0
flow[source_1,sink_3] 1.7582940456580684e+02
flow[innode_1,sink_16] 1.6354166666666970e+01
flow[innode_6,sink_13] -5.3547593216121285e+00
flow[sink_13,sink_14] -2.1708925988278796e+01
flow[sink_14,sink_10] -3.8063092654945464e+01
flow[sink_25,sink_26] 0
flow[sink_26,sink_9] 6.3551194640187035e+01
flow[sink_9,sink_18] 4.7197027973520363e+01
flow[sink_26,sink_4] -7.9905361306853692e+01
flow[sink_4,sink_20] -1.5527356898611492e+02
flow[sink_18,sink_6] 30.8428613068537
flow[sink_25,innode_8] -1.4312107123247048e+02
flow[sink_6,sink_7] -8.8063635862208685e+00
flow[sink_6,sink_22] 2.3295058226407939e+01
flow[sink_7,sink_24] 1.1451774263736949e+00
flow[sink_22,sink_1] 6.9408915597412726e+00
flow[sink_24,sink_21] 0
flow[sink_21,sink_12] 0
flow[sink_7,sink_5] -2.6305707679261229e+01
flow[sink_5,sink_17] -42.6598743459279
flow[sink_17,sink_4] -5.9014041012594575e+01
flow[sink_17,sink_8] 0
flow[sink_3,sink_23] 16.3541666666697
flow[sink_8,sink_20] -1.6354166666668334e+01
flow[sink_25,sink_20] 1.8798190231945003e+02
flow[sink_25,sink_15] -5.5860238432034592e+01
flow[sink_15,sink_29] -8.8568571765385514e+01
flow[sink_29,sink_28] 1.6354166666667879e+01
flow[sink_29,sink_2] 0
flow[sink_2,sink_15] -1.6354166666684250e+01
flow[sink_29,innode_7] -1.2127690509871942e+02
flow[innode_4,sink_19] 4.6479174126953737e+01
flow[sink_19,innode_3] 4.2516921458686873e+01
flow[innode_4,innode_5] 73.3547518613257
flow[sink_27,innode_5] -73.3547518613257
flow[sink_27,sink_19] 5.7000585194659024e+01
flow[sink_10,sink_11] 3.2708333333333641e+01
flow[sink_10,innode_2] -4.4608671196258896e+01
flow[sink_10,innode_3] -4.2516921458686873e+01
flow[innode_6,sink_25] 5.3547593216121285e+00
flow[sink_11,innode_1] 1.6354166666666970e+01
flow[sink_19,innode_2] 4.4608671196258896e+01
flow[source_3,innode_4] 1.1983392598827943e+02
flow[source_2,innode_7] 1.2127690509871942e+02
flow[sink_3,innode_8] 1.4312107123247048e+02
pressure[innode_1] 76.6208064063345
pressure[innode_2] 7.9130260226506437e+01
pressure[innode_3] 7.9036111318455241e+01
pressure[innode_4] 81.01325
pressure[innode_5] 8.0962792733661729e+01
pressure[innode_6] 7.4903807011974123e+01
pressure[innode_7] 81.01325
pressure[innode_8] 8.0425519469803675e+01
pressure[source_1] 81.01325
pressure[source_2] 81.01325
pressure[source_3] 81.01325
pressure[sink_1] 1.0132500000000002e+00
pressure[sink_2] 7.5121390850039063e+01
pressure[sink_3] 8.0425519469803675e+01
pressure[sink_4] 1.8697905276641851e+01
pressure[sink_5] 1.3264730937582364e+01
pressure[sink_6] 2.2035024438704602e+00
pressure[sink_7] 2.3243928247155279e+00
pressure[sink_8] 2.8949840856566848e+01
pressure[sink_9] 4.7348278154478134e+00
pressure[sink_10] 7.6772507713938040e+01
pressure[sink_11] 76.6208064063345
pressure[sink_12] 1.01325
pressure[sink_13] 7.4933326905250752e+01
pressure[sink_14] 74.9721768774984
pressure[sink_15] 7.5174783599805508e+01
pressure[sink_16] 7.5599156571516815e+01
pressure[sink_17] 16.4425832219256
pressure[sink_18] 3.0270986720297257e+00
pressure[sink_19] 7.9130260226506437e+01
pressure[sink_20] 3.0089496280155139e+01
pressure[sink_21] 1.01325
pressure[sink_22] 1.4647255421157688e+00
pressure[sink_23] 8.0260801458143888e+01
pressure[sink_24] 1.01325
pressure[sink_25] 7.4903807011974123e+01
pressure[sink_26] 8.5385308357813088e+00
pressure[sink_27] 8.0354083838219822e+01
pressure[sink_28] 7.7474285616721957e+01
pressure[sink_29] 7.7769567890339133e+01
interdiction[source_1,sink_3] 0
interdiction[innode_1,sink_16] 0
interdiction[innode_6,sink_13] 0
interdiction[sink_13,sink_14] 0
interdiction[sink_14,sink_10] 0
interdiction[sink_25,sink_26] 1
interdiction[sink_26,sink_9] 0
interdiction[sink_9,sink_18] 0
interdiction[sink_26,sink_4] 0
interdiction[sink_4,sink_20] 0
interdiction[sink_18,sink_6] 0
interdiction[sink_25,innode_8] 0
interdiction[sink_6,sink_7] 0
interdiction[sink_6,sink_22] 0
interdiction[sink_7,sink_24] 0
interdiction[sink_22,sink_1] 0
interdiction[sink_24,sink_21] 0
interdiction[sink_21,sink_12] 0
interdiction[sink_7,sink_5] 0
interdiction[sink_5,sink_17] 0
interdiction[sink_17,sink_4] 0
interdiction[sink_17,sink_8] 1
interdiction[sink_3,sink_23] 0
interdiction[sink_8,sink_20] 0
interdiction[sink_25,sink_20] 0
interdiction[sink_25,sink_15] 0
interdiction[sink_15,sink_29] 0
interdiction[sink_29,sink_28] 0
interdiction[sink_29,sink_2] 1
interdiction[sink_2,sink_15] 0
interdiction[sink_29,innode_7] 0
interdiction[innode_4,sink_19] 0
interdiction[sink_19,innode_3] 0
interdiction[innode_4,innode_5] 0
interdiction[sink_27,innode_5] 0
interdiction[sink_27,sink_19] 0
interdiction[sink_10,sink_11] 0
interdiction[sink_10,innode_2] 0
interdiction[sink_10,innode_3] 0
interdiction[innode_6,sink_25] 0
interdiction[sink_11,innode_1] 0
interdiction[sink_19,innode_2] 0
interdiction[source_3,innode_4] 0
interdiction[source_2,innode_7] 0
interdiction[sink_3,innode_8] 0
WCcheckFlow[source_1,sink_3] 39
WCcheckFlow[innode_1,sink_16] 1
WCcheckFlow[innode_6,sink_13] 13
WCcheckFlow[sink_13,sink_14] 12
WCcheckFlow[sink_14,sink_10] 11
WCcheckFlow[sink_25,sink_26] 0
WCcheckFlow[sink_26,sink_9] 11
WCcheckFlow[sink_9,sink_18] 10
WCcheckFlow[sink_26,sink_4] -12
WCcheckFlow[sink_4,sink_20] -13
WCcheckFlow[sink_18,sink_6] 9
WCcheckFlow[sink_25,innode_8] -36
WCcheckFlow[sink_6,sink_7] 6
WCcheckFlow[sink_6,sink_22] 2
WCcheckFlow[sink_7,sink_24] 3
WCcheckFlow[sink_22,sink_1] 1
WCcheckFlow[sink_24,sink_21] 2
WCcheckFlow[sink_21,sink_12] 1
WCcheckFlow[sink_7,sink_5] 2
WCcheckFlow[sink_5,sink_17] 1
WCcheckFlow[sink_17,sink_4] 0
WCcheckFlow[sink_17,sink_8] 0
WCcheckFlow[sink_3,sink_23] 1
WCcheckFlow[sink_8,sink_20] -1
WCcheckFlow[sink_25,sink_20] 15
WCcheckFlow[sink_25,sink_15] 6
WCcheckFlow[sink_15,sink_29] 4
WCcheckFlow[sink_29,sink_28] 1
WCcheckFlow[sink_29,sink_2] 0
WCcheckFlow[sink_2,sink_15] -1
WCcheckFlow[sink_29,innode_7] 2
WCcheckFlow[innode_4,sink_19] -4
WCcheckFlow[sink_19,innode_3] -5
WCcheckFlow[innode_4,innode_5] 2
WCcheckFlow[sink_27,innode_5] -1
WCcheckFlow[sink_27,sink_19] 0
WCcheckFlow[sink_10,sink_11] 3
WCcheckFlow[sink_10,innode_2] 1
WCcheckFlow[sink_10,innode_3] 6
WCcheckFlow[innode_6,sink_25] -14
WCcheckFlow[sink_11,innode_1] 2
WCcheckFlow[sink_19,innode_2] 0
WCcheckFlow[source_3,innode_4] -1
WCcheckFlow[source_2,innode_7] -1
WCcheckFlow[sink_3,innode_8] 37
